NAME meiosis_srl_ilp
* Max problem is converted into Min one
ROWS
 N  OBJ
 L  constraint1_2811
 L  constraint1_1320
 L  constraint1_2360
 L  constraint1_1190
 L  constraint1_1662
 L  constraint1_1661
 L  constraint1_1660
 L  constraint1_1040
 L  constraint1_1820
 L  constraint1_2610
 L  constraint1_51
 L  constraint1_50
 L  constraint1_52
 L  constraint1_1830
 L  constraint1_7470
 L  constraint1_7471
 L  constraint1_7472
 L  constraint1_5781
 L  constraint1_5780
 L  constraint1_5782
 L  constraint1_5270
 L  constraint1_5271
 L  constraint1_2851
 L  constraint1_2850
 L  constraint1_3810
 L  constraint1_6100
 L  constraint1_5310
 L  constraint1_5311
 L  constraint1_5313
 L  constraint1_5312
 L  constraint1_5314
 L  constraint2_2810
 L  constraint2_2811
 L  constraint2_2812
 L  constraint2_2813
 L  constraint2_1320
 L  constraint2_1321
 L  constraint2_1322
 L  constraint2_1323
 L  constraint2_2360
 L  constraint2_2361
 L  constraint2_2362
 L  constraint2_2363
 L  constraint2_1190
 L  constraint2_1191
 L  constraint2_1192
 L  constraint2_1193
 L  constraint2_1660
 L  constraint2_1661
 L  constraint2_1662
 L  constraint2_1663
 L  constraint2_4710
 L  constraint2_4711
 L  constraint2_4712
 L  constraint2_4713
 L  constraint2_1040
 L  constraint2_1041
 L  constraint2_1042
 L  constraint2_1043
 L  constraint2_1820
 L  constraint2_1821
 L  constraint2_1822
 L  constraint2_1823
 L  constraint2_2610
 L  constraint2_2611
 L  constraint2_2612
 L  constraint2_2613
 L  constraint2_50
 L  constraint2_51
 L  constraint2_52
 L  constraint2_53
 L  constraint2_1830
 L  constraint2_1831
 L  constraint2_1832
 L  constraint2_1833
 L  constraint2_7470
 L  constraint2_7471
 L  constraint2_7472
 L  constraint2_7473
 L  constraint2_7200
 L  constraint2_7201
 L  constraint2_7202
 L  constraint2_7203
 L  constraint2_7400
 L  constraint2_7401
 L  constraint2_7402
 L  constraint2_7403
 L  constraint2_5780
 L  constraint2_5781
 L  constraint2_5782
 L  constraint2_5783
 L  constraint2_5440
 L  constraint2_5441
 L  constraint2_5442
 L  constraint2_5443
 L  constraint2_3490
 L  constraint2_3491
 L  constraint2_3492
 L  constraint2_3493
 L  constraint2_5270
 L  constraint2_5271
 L  constraint2_5272
 L  constraint2_5273
 L  constraint2_2850
 L  constraint2_2851
 L  constraint2_2852
 L  constraint2_2853
 L  constraint2_2540
 L  constraint2_2541
 L  constraint2_2542
 L  constraint2_2543
 L  constraint2_3810
 L  constraint2_3811
 L  constraint2_3812
 L  constraint2_3813
 L  constraint2_6100
 L  constraint2_6101
 L  constraint2_6102
 L  constraint2_6103
 L  constraint2_5310
 L  constraint2_5311
 L  constraint2_5312
 L  constraint2_5313
COLUMNS
    MARKER    'MARKER'                 'INTORG'
    Z_281_1_0  OBJ       -1.4796054088361756e-03
    Z_281_1_0  constraint1_2811  1
    Z_281_1_0  constraint2_2810  1
    Z_281_1_1  OBJ       -6.1982425808497466e-04
    Z_281_1_1  constraint1_2811  1
    Z_281_1_1  constraint2_2811  1
    Z_281_1_2  OBJ       -7.8420585505126550e-01
    Z_281_1_2  constraint1_2811  1
    Z_281_1_2  constraint2_2812  1
    Z_281_1_3  OBJ       -3.8548761774901174e-03
    Z_281_1_3  constraint1_2811  1
    Z_281_1_3  constraint2_2813  1
    Z_281_1_4  OBJ       -1.0983983910432320e-01
    Z_281_1_4  constraint1_2811  1
    Z_132_0_0  OBJ       -2.7052768616439994e-04
    Z_132_0_0  constraint1_1320  1
    Z_132_0_0  constraint2_1320  1
    Z_132_0_1  OBJ       -8.7962321803675180e-04
    Z_132_0_1  constraint1_1320  1
    Z_132_0_1  constraint2_1321  1
    Z_132_0_2  OBJ       -6.6705949677337339e-02
    Z_132_0_2  constraint1_1320  1
    Z_132_0_2  constraint2_1322  1
    Z_132_0_3  OBJ       -8.0607646794710652e-01
    Z_132_0_3  constraint1_1320  1
    Z_132_0_3  constraint2_1323  1
    Z_132_0_4  OBJ       -2.6067431471354971e-02
    Z_132_0_4  constraint1_1320  1
    Z_236_0_0  OBJ       -6.7235280028221361e-03
    Z_236_0_0  constraint1_2360  1
    Z_236_0_0  constraint2_2360  1
    Z_236_0_1  OBJ       -5.3914847505741548e-01
    Z_236_0_1  constraint1_2360  1
    Z_236_0_1  constraint2_2361  1
    Z_236_0_2  OBJ       -3.6448791556852561e-03
    Z_236_0_2  constraint1_2360  1
    Z_236_0_2  constraint2_2362  1
    Z_236_0_3  OBJ       -4.4182986410783599e-03
    Z_236_0_3  constraint1_2360  1
    Z_236_0_3  constraint2_2363  1
    Z_236_0_4  OBJ       -3.4606481914299869e-01
    Z_236_0_4  constraint1_2360  1
    Z_119_0_0  OBJ       -6.4665445241885876e-04
    Z_119_0_0  constraint1_1190  1
    Z_119_0_0  constraint2_1190  1
    Z_119_0_1  OBJ       -2.4106524987693276e-03
    Z_119_0_1  constraint1_1190  1
    Z_119_0_1  constraint2_1191  1
    Z_119_0_2  OBJ       -4.3944401209125364e-02
    Z_119_0_2  constraint1_1190  1
    Z_119_0_2  constraint2_1192  1
    Z_119_0_3  OBJ       -4.1496461617427977e-01
    Z_119_0_3  constraint1_1190  1
    Z_119_0_3  constraint2_1193  1
    Z_119_0_4  OBJ       -4.3803367566540669e-01
    Z_119_0_4  constraint1_1190  1
    Z_166_2_0  OBJ       -9.8864635677104531e-02
    Z_166_2_0  constraint1_1662  1
    Z_166_2_0  constraint2_1660  1
    Z_166_2_1  OBJ       -8.5868341997328970e-02
    Z_166_2_1  constraint1_1662  1
    Z_166_2_1  constraint2_1661  1
    Z_166_2_2  OBJ       -4.6245976282309281e-02
    Z_166_2_2  constraint1_1662  1
    Z_166_2_2  constraint2_1662  1
    Z_166_2_3  OBJ       -1.1719640882182027e-01
    Z_166_2_3  constraint1_1662  1
    Z_166_2_3  constraint2_1663  1
    Z_166_2_4  OBJ       -5.5182463722143693e-01
    Z_166_2_4  constraint1_1662  1
    Z_166_1_0  OBJ       -5.2680053541469318e-01
    Z_166_1_0  constraint1_1661  1
    Z_166_1_0  constraint2_1660  1
    Z_166_1_1  OBJ       -7.1220207422348331e-02
    Z_166_1_1  constraint1_1661  1
    Z_166_1_1  constraint2_1661  1
    Z_166_1_2  OBJ       -6.4072171509802689e-03
    Z_166_1_2  constraint1_1661  1
    Z_166_1_2  constraint2_1662  1
    Z_166_1_3  OBJ       -1.1736783583624748e-01
    Z_166_1_3  constraint1_1661  1
    Z_166_1_3  constraint2_1663  1
    Z_166_1_4  OBJ       -1.7820420417573077e-01
    Z_166_1_4  constraint1_1661  1
    Z_166_0_0  OBJ       -1.5251181048242597e-03
    Z_166_0_0  constraint1_1660  1
    Z_166_0_0  constraint2_1660  1
    Z_166_0_1  OBJ       -6.3754279444674326e-04
    Z_166_0_1  constraint1_1660  1
    Z_166_0_1  constraint2_1661  1
    Z_166_0_2  OBJ       -8.1443975479144548e-01
    Z_166_0_2  constraint1_1660  1
    Z_166_0_2  constraint2_1662  1
    Z_166_0_3  OBJ       -4.9781089449356091e-03
    Z_166_0_3  constraint1_1660  1
    Z_166_0_3  constraint2_1663  1
    Z_166_0_4  OBJ       -7.8419475364347971e-02
    Z_166_0_4  constraint1_1660  1
    Z_104_0_0  OBJ       -9.6004695674918236e-05
    Z_104_0_0  constraint1_1040  1
    Z_104_0_0  constraint2_1040  1
    Z_104_0_1  OBJ       -3.3930329038480995e-03
    Z_104_0_1  constraint1_1040  1
    Z_104_0_1  constraint2_1041  1
    Z_104_0_2  OBJ       -1.1120522307976165e-01
    Z_104_0_2  constraint1_1040  1
    Z_104_0_2  constraint2_1042  1
    Z_104_0_3  OBJ       -7.6562304528678160e-01
    Z_104_0_3  constraint1_1040  1
    Z_104_0_3  constraint2_1043  1
    Z_104_0_4  OBJ       -1.9682694033933863e-02
    Z_104_0_4  constraint1_1040  1
    Z_182_0_0  OBJ       -4.2649928098049191e-04
    Z_182_0_0  constraint1_1820  1
    Z_182_0_0  constraint2_1820  1
    Z_182_0_1  OBJ       -6.8047382329613755e-04
    Z_182_0_1  constraint1_1820  1
    Z_182_0_1  constraint2_1821  1
    Z_182_0_2  OBJ       -7.7031665909446420e-02
    Z_182_0_2  constraint1_1820  1
    Z_182_0_2  constraint2_1822  1
    Z_182_0_3  OBJ       -8.0636711367819602e-01
    Z_182_0_3  constraint1_1820  1
    Z_182_0_3  constraint2_1823  1
    Z_182_0_4  OBJ       -1.5494247308080890e-02
    Z_182_0_4  constraint1_1820  1
    Z_261_0_0  OBJ       -9.8134045458665351e-04
    Z_261_0_0  constraint1_2610  1
    Z_261_0_0  constraint2_2610  1
    Z_261_0_1  OBJ       -8.5488699477495622e-04
    Z_261_0_1  constraint1_2610  1
    Z_261_0_1  constraint2_2611  1
    Z_261_0_2  OBJ       -1.4977797077840877e-02
    Z_261_0_2  constraint1_2610  1
    Z_261_0_2  constraint2_2612  1
    Z_261_0_3  OBJ       -5.3631133164881317e-01
    Z_261_0_3  constraint1_2610  1
    Z_261_0_3  constraint2_2613  1
    Z_261_0_4  OBJ       -3.4687464382398431e-01
    Z_261_0_4  constraint1_2610  1
    Z_5_1_0   OBJ       -1.8381532689489462e-03
    Z_5_1_0   constraint1_51  1
    Z_5_1_0   constraint2_50  1
    Z_5_1_1   OBJ       -3.5089198046636960e-02
    Z_5_1_1   constraint1_51  1
    Z_5_1_1   constraint2_51  1
    Z_5_1_2   OBJ       -1.3375413783417668e-02
    Z_5_1_2   constraint1_51  1
    Z_5_1_2   constraint2_52  1
    Z_5_1_3   OBJ       -4.6249553604974635e-03
    Z_5_1_3   constraint1_51  1
    Z_5_1_3   constraint2_53  1
    Z_5_1_4   OBJ       -8.4507227954049891e-01
    Z_5_1_4   constraint1_51  1
    Z_5_0_0   OBJ       -2.0182491433164479e-03
    Z_5_0_0   constraint1_50  1
    Z_5_0_0   constraint2_50  1
    Z_5_0_1   OBJ       -1.7033085780686792e-03
    Z_5_0_1   constraint1_50  1
    Z_5_0_1   constraint2_51  1
    Z_5_0_2   OBJ       -3.2616909313399373e-01
    Z_5_0_2   constraint1_50  1
    Z_5_0_2   constraint2_52  1
    Z_5_0_3   OBJ       -2.1532870777206023e-03
    Z_5_0_3   constraint1_50  1
    Z_5_0_3   constraint2_53  1
    Z_5_0_4   OBJ       -5.6795606206690052e-01
    Z_5_0_4   constraint1_50  1
    Z_5_2_0   OBJ       -5.5972251769619147e-02
    Z_5_2_0   constraint1_52  1
    Z_5_2_0   constraint2_50  1
    Z_5_2_1   OBJ       -5.7059943149412450e-02
    Z_5_2_1   constraint1_52  1
    Z_5_2_1   constraint2_51  1
    Z_5_2_2   OBJ       -8.6852857444713345e-03
    Z_5_2_2   constraint1_52  1
    Z_5_2_2   constraint2_52  1
    Z_5_2_3   OBJ       -3.2390856551621224e-02
    Z_5_2_3   constraint1_52  1
    Z_5_2_3   constraint2_53  1
    Z_5_2_4   OBJ       -7.4589166278487584e-01
    Z_5_2_4   constraint1_52  1
    Z_183_0_0  OBJ       -1.0295612760323578e-02
    Z_183_0_0  constraint1_1830  1
    Z_183_0_0  constraint2_1830  1
    Z_183_0_1  OBJ       -8.2453067733593655e-01
    Z_183_0_1  constraint1_1830  1
    Z_183_0_1  constraint2_1831  1
    Z_183_0_2  OBJ       -8.7277432647009275e-03
    Z_183_0_2  constraint1_1830  1
    Z_183_0_2  constraint2_1832  1
    Z_183_0_3  OBJ       -6.5885842547108000e-03
    Z_183_0_3  constraint1_1830  1
    Z_183_0_3  constraint2_1833  1
    Z_183_0_4  OBJ       -4.9857382384328137e-02
    Z_183_0_4  constraint1_1830  1
    Z_747_0_0  OBJ       -1.4211010219118167e-03
    Z_747_0_0  constraint1_7470  1
    Z_747_0_0  constraint2_7470  1
    Z_747_0_1  OBJ       -5.8720474465200631e-04
    Z_747_0_1  constraint1_7470  1
    Z_747_0_1  constraint2_7471  1
    Z_747_0_2  OBJ       -7.6197054561357391e-01
    Z_747_0_2  constraint1_7470  1
    Z_747_0_2  constraint2_7472  1
    Z_747_0_3  OBJ       -3.0377842042221192e-03
    Z_747_0_3  constraint1_7470  1
    Z_747_0_3  constraint2_7473  1
    Z_747_0_4  OBJ       -1.3298336441564013e-01
    Z_747_0_4  constraint1_7470  1
    Z_747_1_0  OBJ       -1.4211010219118167e-03
    Z_747_1_0  constraint1_7471  1
    Z_747_1_0  constraint2_7470  1
    Z_747_1_1  OBJ       -5.8720474465200631e-04
    Z_747_1_1  constraint1_7471  1
    Z_747_1_1  constraint2_7471  1
    Z_747_1_2  OBJ       -7.6197054561357391e-01
    Z_747_1_2  constraint1_7471  1
    Z_747_1_2  constraint2_7472  1
    Z_747_1_3  OBJ       -3.0377842042221192e-03
    Z_747_1_3  constraint1_7471  1
    Z_747_1_3  constraint2_7473  1
    Z_747_1_4  OBJ       -1.3298336441564013e-01
    Z_747_1_4  constraint1_7471  1
    Z_747_2_0  OBJ       -1.7747818258356626e-01
    Z_747_2_0  constraint1_7472  1
    Z_747_2_0  constraint2_7470  1
    Z_747_2_1  OBJ       -4.6293025368506525e-03
    Z_747_2_1  constraint1_7472  1
    Z_747_2_1  constraint2_7471  1
    Z_747_2_2  OBJ       -8.8720254685512295e-03
    Z_747_2_2  constraint1_7472  1
    Z_747_2_2  constraint2_7472  1
    Z_747_2_3  OBJ       -3.5386413614671880e-01
    Z_747_2_3  constraint1_7472  1
    Z_747_2_3  constraint2_7473  1
    Z_747_2_4  OBJ       -3.5515635326431300e-01
    Z_747_2_4  constraint1_7472  1
    Z_578_1_0  OBJ       -8.3593992542628268e-02
    Z_578_1_0  constraint1_5781  1
    Z_578_1_0  constraint2_5780  1
    Z_578_1_1  OBJ       -3.0819608872433912e-02
    Z_578_1_1  constraint1_5781  1
    Z_578_1_1  constraint2_5781  1
    Z_578_1_2  OBJ       -9.3248373649428257e-02
    Z_578_1_2  constraint1_5781  1
    Z_578_1_2  constraint2_5782  1
    Z_578_1_3  OBJ       -1.6698824313673191e-01
    Z_578_1_3  constraint1_5781  1
    Z_578_1_3  constraint2_5783  1
    Z_578_1_4  OBJ       -5.2534978179877778e-01
    Z_578_1_4  constraint1_5781  1
    Z_578_0_0  OBJ       -3.1090371744071708e-03
    Z_578_0_0  constraint1_5780  1
    Z_578_0_0  constraint2_5780  1
    Z_578_0_1  OBJ       -1.1852538057541603e-03
    Z_578_0_1  constraint1_5780  1
    Z_578_0_1  constraint2_5781  1
    Z_578_0_2  OBJ       -6.8929604398145194e-01
    Z_578_0_2  constraint1_5780  1
    Z_578_0_2  constraint2_5782  1
    Z_578_0_3  OBJ       -1.0355730254674114e-02
    Z_578_0_3  constraint1_5780  1
    Z_578_0_3  constraint2_5783  1
    Z_578_0_4  OBJ       -1.9605393478371275e-01
    Z_578_0_4  constraint1_5780  1
    Z_578_2_0  OBJ       -8.3593992542628268e-02
    Z_578_2_0  constraint1_5782  1
    Z_578_2_0  constraint2_5780  1
    Z_578_2_1  OBJ       -3.0819608872433912e-02
    Z_578_2_1  constraint1_5782  1
    Z_578_2_1  constraint2_5781  1
    Z_578_2_2  OBJ       -9.3248373649428257e-02
    Z_578_2_2  constraint1_5782  1
    Z_578_2_2  constraint2_5782  1
    Z_578_2_3  OBJ       -1.6698824313673191e-01
    Z_578_2_3  constraint1_5782  1
    Z_578_2_3  constraint2_5783  1
    Z_578_2_4  OBJ       -5.2534978179877778e-01
    Z_578_2_4  constraint1_5782  1
    Z_527_0_0  OBJ       -2.4817348627127903e-01
    Z_527_0_0  constraint1_5270  1
    Z_527_0_0  constraint2_5270  1
    Z_527_0_1  OBJ       -6.6243886933785315e-02
    Z_527_0_1  constraint1_5270  1
    Z_527_0_1  constraint2_5271  1
    Z_527_0_2  OBJ       -8.2620972832760847e-02
    Z_527_0_2  constraint1_5270  1
    Z_527_0_2  constraint2_5272  1
    Z_527_0_3  OBJ       -3.0146940603887347e-02
    Z_527_0_3  constraint1_5270  1
    Z_527_0_3  constraint2_5273  1
    Z_527_0_4  OBJ       -4.7281471335828751e-01
    Z_527_0_4  constraint1_5270  1
    Z_527_1_0  OBJ       -1.7400153704625664e-03
    Z_527_1_0  constraint1_5271  1
    Z_527_1_0  constraint2_5270  1
    Z_527_1_1  OBJ       -9.2162827457412339e-04
    Z_527_1_1  constraint1_5271  1
    Z_527_1_1  constraint2_5271  1
    Z_527_1_2  OBJ       -6.4374122263133993e-01
    Z_527_1_2  constraint1_5271  1
    Z_527_1_2  constraint2_5272  1
    Z_527_1_3  OBJ       -7.6702550702927377e-03
    Z_527_1_3  constraint1_5271  1
    Z_527_1_3  constraint2_5273  1
    Z_527_1_4  OBJ       -2.4592687865333079e-01
    Z_527_1_4  constraint1_5271  1
    Z_285_1_0  OBJ       -6.4105019131036423e-01
    Z_285_1_0  constraint1_2851  1
    Z_285_1_0  constraint2_2850  1
    Z_285_1_1  OBJ       -5.1029400239584695e-02
    Z_285_1_1  constraint1_2851  1
    Z_285_1_1  constraint2_2851  1
    Z_285_1_2  OBJ       -3.6946188693431983e-03
    Z_285_1_2  constraint1_2851  1
    Z_285_1_2  constraint2_2852  1
    Z_285_1_3  OBJ       -5.5585120652636523e-02
    Z_285_1_3  constraint1_2851  1
    Z_285_1_3  constraint2_2853  1
    Z_285_1_4  OBJ       -1.4864066892807140e-01
    Z_285_1_4  constraint1_2851  1
    Z_285_0_0  OBJ       -1.5251181048242597e-03
    Z_285_0_0  constraint1_2850  1
    Z_285_0_0  constraint2_2850  1
    Z_285_0_1  OBJ       -6.3754279444674326e-04
    Z_285_0_1  constraint1_2850  1
    Z_285_0_1  constraint2_2851  1
    Z_285_0_2  OBJ       -8.1443975479144548e-01
    Z_285_0_2  constraint1_2850  1
    Z_285_0_2  constraint2_2852  1
    Z_285_0_3  OBJ       -4.9781089449356091e-03
    Z_285_0_3  constraint1_2850  1
    Z_285_0_3  constraint2_2853  1
    Z_285_0_4  OBJ       -7.8419475364347971e-02
    Z_285_0_4  constraint1_2850  1
    Z_381_0_0  OBJ       -1.5955123903911360e-03
    Z_381_0_0  constraint1_3810  1
    Z_381_0_0  constraint2_3810  1
    Z_381_0_1  OBJ       -1.0784333211764727e-03
    Z_381_0_1  constraint1_3810  1
    Z_381_0_1  constraint2_3811  1
    Z_381_0_2  OBJ       -2.4439753877167004e-02
    Z_381_0_2  constraint1_3810  1
    Z_381_0_2  constraint2_3812  1
    Z_381_0_3  OBJ       -6.8716914920422101e-01
    Z_381_0_3  constraint1_3810  1
    Z_381_0_3  constraint2_3813  1
    Z_381_0_4  OBJ       -1.8571715120704441e-01
    Z_381_0_4  constraint1_3810  1
    Z_610_0_0  OBJ       -2.0318452413428624e-04
    Z_610_0_0  constraint1_6100  1
    Z_610_0_0  constraint2_6100  1
    Z_610_0_1  OBJ       -1.3496452586577448e-03
    Z_610_0_1  constraint1_6100  1
    Z_610_0_1  constraint2_6101  1
    Z_610_0_2  OBJ       -1.2741820214352545e-01
    Z_610_0_2  constraint1_6100  1
    Z_610_0_2  constraint2_6102  1
    Z_610_0_3  OBJ       -7.5468503682940935e-01
    Z_610_0_3  constraint1_6100  1
    Z_610_0_3  constraint2_6103  1
    Z_610_0_4  OBJ       -1.6343931244273174e-02
    Z_610_0_4  constraint1_6100  1
    Z_531_0_0  OBJ       -1.7714727696229802e-03
    Z_531_0_0  constraint1_5310  1
    Z_531_0_0  constraint2_5310  1
    Z_531_0_1  OBJ       -1.7078774736520964e-02
    Z_531_0_1  constraint1_5310  1
    Z_531_0_1  constraint2_5311  1
    Z_531_0_2  OBJ       -1.0051474922510958e-02
    Z_531_0_2  constraint1_5310  1
    Z_531_0_2  constraint2_5312  1
    Z_531_0_3  OBJ       -5.1164624411413437e-02
    Z_531_0_3  constraint1_5310  1
    Z_531_0_3  constraint2_5313  1
    Z_531_0_4  OBJ       -8.1993365315993183e-01
    Z_531_0_4  constraint1_5310  1
    Z_531_1_0  OBJ       -1.2454298505040505e-02
    Z_531_1_0  constraint1_5311  1
    Z_531_1_0  constraint2_5310  1
    Z_531_1_1  OBJ       -3.5108158096013656e-02
    Z_531_1_1  constraint1_5311  1
    Z_531_1_1  constraint2_5311  1
    Z_531_1_2  OBJ       -2.4102401423826917e-02
    Z_531_1_2  constraint1_5311  1
    Z_531_1_2  constraint2_5312  1
    Z_531_1_3  OBJ       -8.0691844951408576e-02
    Z_531_1_3  constraint1_5311  1
    Z_531_1_3  constraint2_5313  1
    Z_531_1_4  OBJ       -7.4764329702371035e-01
    Z_531_1_4  constraint1_5311  1
    Z_531_3_0  OBJ       -2.3049587604918983e-02
    Z_531_3_0  constraint1_5313  1
    Z_531_3_0  constraint2_5310  1
    Z_531_3_1  OBJ       -1.0660095032942813e-02
    Z_531_3_1  constraint1_5313  1
    Z_531_3_1  constraint2_5311  1
    Z_531_3_2  OBJ       -3.8696990725211205e-03
    Z_531_3_2  constraint1_5313  1
    Z_531_3_2  constraint2_5312  1
    Z_531_3_3  OBJ       -1.1723030138093794e-01
    Z_531_3_3  constraint1_5313  1
    Z_531_3_3  constraint2_5313  1
    Z_531_3_4  OBJ       -7.4519031690867921e-01
    Z_531_3_4  constraint1_5313  1
    Z_531_2_0  OBJ       -5.3227778178427373e-02
    Z_531_2_0  constraint1_5312  1
    Z_531_2_0  constraint2_5310  1
    Z_531_2_1  OBJ       -4.9588045188542706e-02
    Z_531_2_1  constraint1_5312  1
    Z_531_2_1  constraint2_5311  1
    Z_531_2_2  OBJ       -8.2666113455655884e-03
    Z_531_2_2  constraint1_5312  1
    Z_531_2_2  constraint2_5312  1
    Z_531_2_3  OBJ       -1.5983209899372072e-01
    Z_531_2_3  constraint1_5312  1
    Z_531_2_3  constraint2_5313  1
    Z_531_2_4  OBJ       -6.2908546629374373e-01
    Z_531_2_4  constraint1_5312  1
    Z_531_4_0  OBJ       -1.8911877284826156e-02
    Z_531_4_0  constraint1_5314  1
    Z_531_4_0  constraint2_5310  1
    Z_531_4_1  OBJ       -1.2927277160401829e-01
    Z_531_4_1  constraint1_5314  1
    Z_531_4_1  constraint2_5311  1
    Z_531_4_2  OBJ       -7.5044336400131939e-03
    Z_531_4_2  constraint1_5314  1
    Z_531_4_2  constraint2_5312  1
    Z_531_4_3  OBJ       -1.0962047765110662e-01
    Z_531_4_3  constraint1_5314  1
    Z_531_4_3  constraint2_5313  1
    Z_531_4_4  OBJ       -6.3469043982003559e-01
    Z_531_4_4  constraint1_5314  1
    MARKER    'MARKER'                 'INTEND'
RHS
    RHS1      constraint1_2811  1
    RHS1      constraint1_1320  1
    RHS1      constraint1_2360  1
    RHS1      constraint1_1190  1
    RHS1      constraint1_1662  1
    RHS1      constraint1_1661  1
    RHS1      constraint1_1660  1
    RHS1      constraint1_1040  1
    RHS1      constraint1_1820  1
    RHS1      constraint1_2610  1
    RHS1      constraint1_51  1
    RHS1      constraint1_50  1
    RHS1      constraint1_52  1
    RHS1      constraint1_1830  1
    RHS1      constraint1_7470  1
    RHS1      constraint1_7471  1
    RHS1      constraint1_7472  1
    RHS1      constraint1_5781  1
    RHS1      constraint1_5780  1
    RHS1      constraint1_5782  1
    RHS1      constraint1_5270  1
    RHS1      constraint1_5271  1
    RHS1      constraint1_2851  1
    RHS1      constraint1_2850  1
    RHS1      constraint1_3810  1
    RHS1      constraint1_6100  1
    RHS1      constraint1_5310  1
    RHS1      constraint1_5311  1
    RHS1      constraint1_5313  1
    RHS1      constraint1_5312  1
    RHS1      constraint1_5314  1
    RHS1      constraint2_2810  1
    RHS1      constraint2_2811  1
    RHS1      constraint2_2812  1
    RHS1      constraint2_2813  1
    RHS1      constraint2_1320  1
    RHS1      constraint2_1321  1
    RHS1      constraint2_1322  1
    RHS1      constraint2_1323  1
    RHS1      constraint2_2360  1
    RHS1      constraint2_2361  1
    RHS1      constraint2_2362  1
    RHS1      constraint2_2363  1
    RHS1      constraint2_1190  1
    RHS1      constraint2_1191  1
    RHS1      constraint2_1192  1
    RHS1      constraint2_1193  1
    RHS1      constraint2_1660  1
    RHS1      constraint2_1661  1
    RHS1      constraint2_1662  1
    RHS1      constraint2_1663  1
    RHS1      constraint2_4710  1
    RHS1      constraint2_4711  1
    RHS1      constraint2_4712  1
    RHS1      constraint2_4713  1
    RHS1      constraint2_1040  1
    RHS1      constraint2_1041  1
    RHS1      constraint2_1042  1
    RHS1      constraint2_1043  1
    RHS1      constraint2_1820  1
    RHS1      constraint2_1821  1
    RHS1      constraint2_1822  1
    RHS1      constraint2_1823  1
    RHS1      constraint2_2610  1
    RHS1      constraint2_2611  1
    RHS1      constraint2_2612  1
    RHS1      constraint2_2613  1
    RHS1      constraint2_50  1
    RHS1      constraint2_51  1
    RHS1      constraint2_52  1
    RHS1      constraint2_53  1
    RHS1      constraint2_1830  1
    RHS1      constraint2_1831  1
    RHS1      constraint2_1832  1
    RHS1      constraint2_1833  1
    RHS1      constraint2_7470  1
    RHS1      constraint2_7471  1
    RHS1      constraint2_7472  1
    RHS1      constraint2_7473  1
    RHS1      constraint2_7200  1
    RHS1      constraint2_7201  1
    RHS1      constraint2_7202  1
    RHS1      constraint2_7203  1
    RHS1      constraint2_7400  1
    RHS1      constraint2_7401  1
    RHS1      constraint2_7402  1
    RHS1      constraint2_7403  1
    RHS1      constraint2_5780  1
    RHS1      constraint2_5781  1
    RHS1      constraint2_5782  1
    RHS1      constraint2_5783  1
    RHS1      constraint2_5440  1
    RHS1      constraint2_5441  1
    RHS1      constraint2_5442  1
    RHS1      constraint2_5443  1
    RHS1      constraint2_3490  1
    RHS1      constraint2_3491  1
    RHS1      constraint2_3492  1
    RHS1      constraint2_3493  1
    RHS1      constraint2_5270  1
    RHS1      constraint2_5271  1
    RHS1      constraint2_5272  1
    RHS1      constraint2_5273  1
    RHS1      constraint2_2850  1
    RHS1      constraint2_2851  1
    RHS1      constraint2_2852  1
    RHS1      constraint2_2853  1
    RHS1      constraint2_2540  1
    RHS1      constraint2_2541  1
    RHS1      constraint2_2542  1
    RHS1      constraint2_2543  1
    RHS1      constraint2_3810  1
    RHS1      constraint2_3811  1
    RHS1      constraint2_3812  1
    RHS1      constraint2_3813  1
    RHS1      constraint2_6100  1
    RHS1      constraint2_6101  1
    RHS1      constraint2_6102  1
    RHS1      constraint2_6103  1
    RHS1      constraint2_5310  1
    RHS1      constraint2_5311  1
    RHS1      constraint2_5312  1
    RHS1      constraint2_5313  1
BOUNDS
 UP BND1      Z_281_1_0  1
 UP BND1      Z_281_1_1  1
 UP BND1      Z_281_1_2  1
 UP BND1      Z_281_1_3  1
 UP BND1      Z_281_1_4  1
 UP BND1      Z_132_0_0  1
 UP BND1      Z_132_0_1  1
 UP BND1      Z_132_0_2  1
 UP BND1      Z_132_0_3  1
 UP BND1      Z_132_0_4  1
 UP BND1      Z_236_0_0  1
 UP BND1      Z_236_0_1  1
 UP BND1      Z_236_0_2  1
 UP BND1      Z_236_0_3  1
 UP BND1      Z_236_0_4  1
 UP BND1      Z_119_0_0  1
 UP BND1      Z_119_0_1  1
 UP BND1      Z_119_0_2  1
 UP BND1      Z_119_0_3  1
 UP BND1      Z_119_0_4  1
 UP BND1      Z_166_2_0  1
 UP BND1      Z_166_2_1  1
 UP BND1      Z_166_2_2  1
 UP BND1      Z_166_2_3  1
 UP BND1      Z_166_2_4  1
 UP BND1      Z_166_1_0  1
 UP BND1      Z_166_1_1  1
 UP BND1      Z_166_1_2  1
 UP BND1      Z_166_1_3  1
 UP BND1      Z_166_1_4  1
 UP BND1      Z_166_0_0  1
 UP BND1      Z_166_0_1  1
 UP BND1      Z_166_0_2  1
 UP BND1      Z_166_0_3  1
 UP BND1      Z_166_0_4  1
 UP BND1      Z_104_0_0  1
 UP BND1      Z_104_0_1  1
 UP BND1      Z_104_0_2  1
 UP BND1      Z_104_0_3  1
 UP BND1      Z_104_0_4  1
 UP BND1      Z_182_0_0  1
 UP BND1      Z_182_0_1  1
 UP BND1      Z_182_0_2  1
 UP BND1      Z_182_0_3  1
 UP BND1      Z_182_0_4  1
 UP BND1      Z_261_0_0  1
 UP BND1      Z_261_0_1  1
 UP BND1      Z_261_0_2  1
 UP BND1      Z_261_0_3  1
 UP BND1      Z_261_0_4  1
 UP BND1      Z_5_1_0   1
 UP BND1      Z_5_1_1   1
 UP BND1      Z_5_1_2   1
 UP BND1      Z_5_1_3   1
 UP BND1      Z_5_1_4   1
 UP BND1      Z_5_0_0   1
 UP BND1      Z_5_0_1   1
 UP BND1      Z_5_0_2   1
 UP BND1      Z_5_0_3   1
 UP BND1      Z_5_0_4   1
 UP BND1      Z_5_2_0   1
 UP BND1      Z_5_2_1   1
 UP BND1      Z_5_2_2   1
 UP BND1      Z_5_2_3   1
 UP BND1      Z_5_2_4   1
 UP BND1      Z_183_0_0  1
 UP BND1      Z_183_0_1  1
 UP BND1      Z_183_0_2  1
 UP BND1      Z_183_0_3  1
 UP BND1      Z_183_0_4  1
 UP BND1      Z_747_0_0  1
 UP BND1      Z_747_0_1  1
 UP BND1      Z_747_0_2  1
 UP BND1      Z_747_0_3  1
 UP BND1      Z_747_0_4  1
 UP BND1      Z_747_1_0  1
 UP BND1      Z_747_1_1  1
 UP BND1      Z_747_1_2  1
 UP BND1      Z_747_1_3  1
 UP BND1      Z_747_1_4  1
 UP BND1      Z_747_2_0  1
 UP BND1      Z_747_2_1  1
 UP BND1      Z_747_2_2  1
 UP BND1      Z_747_2_3  1
 UP BND1      Z_747_2_4  1
 UP BND1      Z_578_1_0  1
 UP BND1      Z_578_1_1  1
 UP BND1      Z_578_1_2  1
 UP BND1      Z_578_1_3  1
 UP BND1      Z_578_1_4  1
 UP BND1      Z_578_0_0  1
 UP BND1      Z_578_0_1  1
 UP BND1      Z_578_0_2  1
 UP BND1      Z_578_0_3  1
 UP BND1      Z_578_0_4  1
 UP BND1      Z_578_2_0  1
 UP BND1      Z_578_2_1  1
 UP BND1      Z_578_2_2  1
 UP BND1      Z_578_2_3  1
 UP BND1      Z_578_2_4  1
 UP BND1      Z_527_0_0  1
 UP BND1      Z_527_0_1  1
 UP BND1      Z_527_0_2  1
 UP BND1      Z_527_0_3  1
 UP BND1      Z_527_0_4  1
 UP BND1      Z_527_1_0  1
 UP BND1      Z_527_1_1  1
 UP BND1      Z_527_1_2  1
 UP BND1      Z_527_1_3  1
 UP BND1      Z_527_1_4  1
 UP BND1      Z_285_1_0  1
 UP BND1      Z_285_1_1  1
 UP BND1      Z_285_1_2  1
 UP BND1      Z_285_1_3  1
 UP BND1      Z_285_1_4  1
 UP BND1      Z_285_0_0  1
 UP BND1      Z_285_0_1  1
 UP BND1      Z_285_0_2  1
 UP BND1      Z_285_0_3  1
 UP BND1      Z_285_0_4  1
 UP BND1      Z_381_0_0  1
 UP BND1      Z_381_0_1  1
 UP BND1      Z_381_0_2  1
 UP BND1      Z_381_0_3  1
 UP BND1      Z_381_0_4  1
 UP BND1      Z_610_0_0  1
 UP BND1      Z_610_0_1  1
 UP BND1      Z_610_0_2  1
 UP BND1      Z_610_0_3  1
 UP BND1      Z_610_0_4  1
 UP BND1      Z_531_0_0  1
 UP BND1      Z_531_0_1  1
 UP BND1      Z_531_0_2  1
 UP BND1      Z_531_0_3  1
 UP BND1      Z_531_0_4  1
 UP BND1      Z_531_1_0  1
 UP BND1      Z_531_1_1  1
 UP BND1      Z_531_1_2  1
 UP BND1      Z_531_1_3  1
 UP BND1      Z_531_1_4  1
 UP BND1      Z_531_3_0  1
 UP BND1      Z_531_3_1  1
 UP BND1      Z_531_3_2  1
 UP BND1      Z_531_3_3  1
 UP BND1      Z_531_3_4  1
 UP BND1      Z_531_2_0  1
 UP BND1      Z_531_2_1  1
 UP BND1      Z_531_2_2  1
 UP BND1      Z_531_2_3  1
 UP BND1      Z_531_2_4  1
 UP BND1      Z_531_4_0  1
 UP BND1      Z_531_4_1  1
 UP BND1      Z_531_4_2  1
 UP BND1      Z_531_4_3  1
 UP BND1      Z_531_4_4  1
ENDATA
